Week_3/Week_Practice_Problem/Week_3_Prac.sol
# Solution for model basic_model
# Objective value = 54800
A 2
B 5
C 7
D 4
E 6
F 0
G 1
